0 0 0 0
0 1 0 0
0 2 2 0
0 3 2 0
0 4 1 2
0 5 0 5
0 6 2 8
0 7 2 8
0 8 0 8
0 9 0 13
0 10 1 8
0 11 2 13
0 12 2 8
0 13 0 16
0 14 0 18
0 15 0 22
0 16 2 18
0 17 1 23
0 18 2 23
0 19 2 23
0 20 0 22
0 21 0 28
0 22 0 28
0 23 0 33
0 24 1 34
0 25 0 34
0 26 2 24
0 27 1 31
0 28 0 37
0 29 0 37
0 30 1 37
0 31 0 40
